16
Plochy
2
113, 114, 
2
206, 208, 209, 
3
210, 211, 212, 213, 214,
3
301, 302, 307, 308, 310,
4
401, 402, 403, 404, 405, 406, 408, 410, 412, 413, 414, 501, 520, 521, 
2
407, 409,


9/5
Line-y
3
104, 105, 107, 201, 202, 215, 304
3
502, 503, 504, 505, 506, 507, 508
3
513, 515, 516, 518, 528, 529, 532